p cnf 128 272
1 2 3 4 0
5 6 7 8 0
9 10 11 12 0
13 14 15 16 0
17 18 19 20 0
21 22 23 24 0
25 26 27 28 0
29 30 31 32 0
33 34 35 36 0
37 38 39 40 0
41 42 43 44 0
45 46 47 48 0
49 50 51 52 0
53 54 55 56 0
57 58 59 60 0
61 62 63 64 0
-1 -65 0
-1 -66 0
-5 65 0
-5 -66 0
-9 -65 0
-9 66 0
-13 65 0
-13 66 0
-2 -67 0
-2 -68 0
-6 67 0
-6 -68 0
-10 -67 0
-10 68 0
-14 67 0
-14 68 0
-3 -69 0
-3 -70 0
-7 69 0
-7 -70 0
-11 -69 0
-11 70 0
-15 69 0
-15 70 0
-4 -71 0
-4 -72 0
-8 71 0
-8 -72 0
-12 -71 0
-12 72 0
-16 71 0
-16 72 0
-17 -73 0
-17 -74 0
-21 73 0
-21 -74 0
-25 -73 0
-25 74 0
-29 73 0
-29 74 0
-18 -75 0
-18 -76 0
-22 75 0
-22 -76 0
-26 -75 0
-26 76 0
-30 75 0
-30 76 0
-19 -77 0
-19 -78 0
-23 77 0
-23 -78 0
-27 -77 0
-27 78 0
-31 77 0
-31 78 0
-20 -79 0
-20 -80 0
-24 79 0
-24 -80 0
-28 -79 0
-28 80 0
-32 79 0
-32 80 0
-33 -81 0
-33 -82 0
-37 81 0
-37 -82 0
-41 -81 0
-41 82 0
-45 81 0
-45 82 0
-34 -83 0
-34 -84 0
-38 83 0
-38 -84 0
-42 -83 0
-42 84 0
-46 83 0
-46 84 0
-35 -85 0
-35 -86 0
-39 85 0
-39 -86 0
-43 -85 0
-43 86 0
-47 85 0
-47 86 0
-36 -87 0
-36 -88 0
-40 87 0
-40 -88 0
-44 -87 0
-44 88 0
-48 87 0
-48 88 0
-49 -89 0
-49 -90 0
-53 89 0
-53 -90 0
-57 -89 0
-57 90 0
-61 89 0
-61 90 0
-50 -91 0
-50 -92 0
-54 91 0
-54 -92 0
-58 -91 0
-58 92 0
-62 91 0
-62 92 0
-51 -93 0
-51 -94 0
-55 93 0
-55 -94 0
-59 -93 0
-59 94 0
-63 93 0
-63 94 0
-52 -95 0
-52 -96 0
-56 95 0
-56 -96 0
-60 -95 0
-60 96 0
-64 95 0
-64 96 0
-1 -97 0
-1 -98 0
-17 97 0
-17 -98 0
-33 -97 0
-33 98 0
-49 97 0
-49 98 0
-2 -99 0
-2 -100 0
-18 99 0
-18 -100 0
-34 -99 0
-34 100 0
-50 99 0
-50 100 0
-3 -101 0
-3 -102 0
-19 101 0
-19 -102 0
-35 -101 0
-35 102 0
-51 101 0
-51 102 0
-4 -103 0
-4 -104 0
-20 103 0
-20 -104 0
-36 -103 0
-36 104 0
-52 103 0
-52 104 0
-5 -105 0
-5 -106 0
-21 105 0
-21 -106 0
-37 -105 0
-37 106 0
-53 105 0
-53 106 0
-6 -107 0
-6 -108 0
-22 107 0
-22 -108 0
-38 -107 0
-38 108 0
-54 107 0
-54 108 0
-7 -109 0
-7 -110 0
-23 109 0
-23 -110 0
-39 -109 0
-39 110 0
-55 109 0
-55 110 0
-8 -111 0
-8 -112 0
-24 111 0
-24 -112 0
-40 -111 0
-40 112 0
-56 111 0
-56 112 0
-9 -113 0
-9 -114 0
-25 113 0
-25 -114 0
-41 -113 0
-41 114 0
-57 113 0
-57 114 0
-10 -115 0
-10 -116 0
-26 115 0
-26 -116 0
-42 -115 0
-42 116 0
-58 115 0
-58 116 0
-11 -117 0
-11 -118 0
-27 117 0
-27 -118 0
-43 -117 0
-43 118 0
-59 117 0
-59 118 0
-12 -119 0
-12 -120 0
-28 119 0
-28 -120 0
-44 -119 0
-44 120 0
-60 119 0
-60 120 0
-13 -121 0
-13 -122 0
-29 121 0
-29 -122 0
-45 -121 0
-45 122 0
-61 121 0
-61 122 0
-14 -123 0
-14 -124 0
-30 123 0
-30 -124 0
-46 -123 0
-46 124 0
-62 123 0
-62 124 0
-15 -125 0
-15 -126 0
-31 125 0
-31 -126 0
-47 -125 0
-47 126 0
-63 125 0
-63 126 0
-16 -127 0
-16 -128 0
-32 127 0
-32 -128 0
-48 -127 0
-48 128 0
-64 127 0
-64 128 0
